<?xml version="1.0" encoding="UTF-8"?><osil xmlns="os.optimizationservices.org"   xmlns:xsi="http://www.w3.org/2001/XMLSchema-instance" xsi:schemaLocation="os.optimizationservices.org http://www.optimizationservices.org/schemas/2.0/OSiL.xsd" ><instanceHeader><name>q_20_4_25_5</name></instanceHeader><instanceData><variables numberOfVariables="20"><var name="x1" ub="1"/><var name="x2" ub="1"/><var name="x3" ub="1"/><var name="x4" ub="1"/><var name="x5" ub="1"/><var name="x6" ub="1"/><var name="x7" ub="1"/><var name="x8" ub="1"/><var name="x9" ub="1"/><var name="x10" ub="1"/><var name="x11" ub="1"/><var name="x12" ub="1"/><var name="x13" ub="1"/><var name="x14" ub="1"/><var name="x15" ub="1"/><var name="x16" ub="1"/><var name="x17" ub="1"/><var name="x18" ub="1"/><var name="x19" ub="1"/><var name="x20" ub="1"/></variables><objectives numberOfObjectives="1"><obj maxOrMin="min" name="defObj_x21" numberOfObjCoef="20"><coef idx="0">-.5987</coef><coef idx="1">.5991</coef><coef idx="2">-.2997</coef><coef idx="3">.4424</coef><coef idx="4">-.2551</coef><coef idx="5">-.4591</coef><coef idx="6">.191</coef><coef idx="7">.7592</coef><coef idx="8">-.4934</coef><coef idx="9">-.5187</coef><coef idx="10">-.1522</coef><coef idx="11">-.7995</coef><coef idx="12">.2015</coef><coef idx="13">.7515</coef><coef idx="14">-.3003</coef><coef idx="15">-5.2e-3</coef><coef idx="16">-.2116</coef><coef idx="17">-6.9e-2</coef><coef idx="18">.4125</coef><coef idx="19">.1911</coef></obj></objectives><constraints numberOfConstraints="4"><con name="e2" ub="48.788"/><con name="e3" ub="47.905"/><con name="e4" ub="12.485"/><con name="e5" ub="93.987"/></constraints><linearConstraintCoefficients numberOfValues="80"><start><el mult="5" incr="20">0</el></start><colIdx><el mult="20" incr="1">0</el><el mult="20" incr="1">0</el><el mult="20" incr="1">0</el><el mult="20" incr="1">0</el></colIdx><value><el>-.1975</el><el>.6526</el><el>.8052</el><el>.2971</el><el>.1198</el><el>.217</el><el>7.9e-3</el><el>-.3018</el><el>.9843</el><el>-.9696</el><el>.8791</el><el>-.9214</el><el>-.6654</el><el>.8961</el><el>.7488</el><el>-.816</el><el>.7283</el><el>.7735</el><el>.4313</el><el>-.8995</el><el>-9.39e-2</el><el>.9649</el><el>.887</el><el>.1799</el><el>-.3306</el><el>.3269</el><el>.5563</el><el>4.27e-2</el><el>-.5169</el><el>-.1694</el><el>-.8772</el><el>-.6835</el><el>3.61e-2</el><el>-.4938</el><el>-8.24e-2</el><el>-.803</el><el>-.1227</el><el>.3447</el><el>-.5165</el><el>.8204</el><el>.3193</el><el>.1272</el><el>7.78e-2</el><el>-.4785</el><el>.1841</el><el>-.4067</el><el>.1632</el><el>.8656</el><el>.1611</el><el>.3543</el><el>.9647</el><el>.9587</el><el>-6.66e-2</el><el>.4269</el><el>-.9024</el><el>.6766</el><el>.5873</el><el>7.72e-2</el><el>-7.31e-2</el><el>-.2137</el><el>.102</el><el>.9971</el><el>.7663</el><el>-.5352</el><el>.5066</el><el>-.387</el><el>-.2135</el><el>1.29e-2</el><el>-.4558</el><el>-.6481</el><el>-.7218</el><el>-.7735</el><el>.5381</el><el>.9237</el><el>8.8e-2</el><el>-.1725</el><el>-.7814</el><el>-.2254</el><el>.3023</el><el>-.9957</el></value></linearConstraintCoefficients><quadraticCoefficients  numberOfQuadraticTerms="260" ><qTerm  idx="-1"  idxOne="0"  idxTwo="13"  coef="-.2366"/><qTerm  idx="-1"  idxOne="0"  idxTwo="16"  coef="-1.4925"/><qTerm  idx="-1"  idxOne="1"  idxTwo="6"  coef="1.3612"/><qTerm  idx="-1"  idxOne="1"  idxTwo="13"  coef="-1.9948"/><qTerm  idx="-1"  idxOne="1"  idxTwo="14"  coef="6.17e-2"/><qTerm  idx="-1"  idxOne="1"  idxTwo="16"  coef="-7.31e-2"/><qTerm  idx="-1"  idxOne="1"  idxTwo="17"  coef="1.4445"/><qTerm  idx="-1"  idxOne="2"  idxTwo="3"  coef=".6472"/><qTerm  idx="-1"  idxOne="2"  idxTwo="5"  coef=".8244"/><qTerm  idx="-1"  idxOne="2"  idxTwo="8"  coef="-1.3984"/><qTerm  idx="-1"  idxOne="2"  idxTwo="12"  coef="-1.4324"/><qTerm  idx="-1"  idxOne="2"  idxTwo="16"  coef="1.1197"/><qTerm  idx="-1"  idxOne="2"  idxTwo="18"  coef="1.8708"/><qTerm  idx="-1"  idxOne="3"  idxTwo="5"  coef="1.4282"/><qTerm  idx="-1"  idxOne="3"  idxTwo="9"  coef="-.2069"/><qTerm  idx="-1"  idxOne="3"  idxTwo="11"  coef="-.2332"/><qTerm  idx="-1"  idxOne="3"  idxTwo="14"  coef="1.3168"/><qTerm  idx="-1"  idxOne="3"  idxTwo="16"  coef="-1.7216"/><qTerm  idx="-1"  idxOne="3"  idxTwo="17"  coef="-1.585"/><qTerm  idx="-1"  idxOne="4"  idxTwo="5"  coef=".831"/><qTerm  idx="-1"  idxOne="4"  idxTwo="7"  coef="1.2377"/><qTerm  idx="-1"  idxOne="4"  idxTwo="8"  coef=".9548"/><qTerm  idx="-1"  idxOne="4"  idxTwo="11"  coef=".6471"/><qTerm  idx="-1"  idxOne="4"  idxTwo="17"  coef="1.6681"/><qTerm  idx="-1"  idxOne="5"  idxTwo="10"  coef="-.1678"/><qTerm  idx="-1"  idxOne="5"  idxTwo="16"  coef=".2241"/><qTerm  idx="-1"  idxOne="6"  idxTwo="9"  coef="1.808"/><qTerm  idx="-1"  idxOne="6"  idxTwo="11"  coef="1.4816"/><qTerm  idx="-1"  idxOne="6"  idxTwo="16"  coef="1.7015"/><qTerm  idx="-1"  idxOne="7"  idxTwo="8"  coef="-1.8092"/><qTerm  idx="-1"  idxOne="7"  idxTwo="12"  coef="-1.9586"/><qTerm  idx="-1"  idxOne="7"  idxTwo="14"  coef=".5365"/><qTerm  idx="-1"  idxOne="8"  idxTwo="14"  coef=".3576"/><qTerm  idx="-1"  idxOne="8"  idxTwo="15"  coef="-1.708"/><qTerm  idx="-1"  idxOne="9"  idxTwo="19"  coef="2.69e-2"/><qTerm  idx="-1"  idxOne="10"  idxTwo="13"  coef="1.5033"/><qTerm  idx="-1"  idxOne="10"  idxTwo="19"  coef=".6748"/><qTerm  idx="-1"  idxOne="11"  idxTwo="11"  coef="1.9461"/><qTerm  idx="-1"  idxOne="11"  idxTwo="12"  coef="-4.29e-2"/><qTerm  idx="-1"  idxOne="11"  idxTwo="16"  coef="-1.38"/><qTerm  idx="-1"  idxOne="11"  idxTwo="17"  coef="1.2099"/><qTerm  idx="-1"  idxOne="12"  idxTwo="14"  coef="-1.6126"/><qTerm  idx="-1"  idxOne="12"  idxTwo="15"  coef="-1.3282"/><qTerm  idx="-1"  idxOne="12"  idxTwo="16"  coef=".358"/><qTerm  idx="-1"  idxOne="12"  idxTwo="17"  coef="-.5599"/><qTerm  idx="-1"  idxOne="12"  idxTwo="19"  coef="3.73e-2"/><qTerm  idx="-1"  idxOne="13"  idxTwo="14"  coef=".892"/><qTerm  idx="-1"  idxOne="13"  idxTwo="16"  coef=".8095"/><qTerm  idx="-1"  idxOne="14"  idxTwo="15"  coef="1.0178"/><qTerm  idx="-1"  idxOne="15"  idxTwo="17"  coef="-.4647"/><qTerm  idx="-1"  idxOne="15"  idxTwo="18"  coef="-1.7084"/><qTerm  idx="-1"  idxOne="16"  idxTwo="17"  coef="-.7509"/><qTerm  idx="0"  idxOne="0"  idxTwo="2"  coef="-.4399"/><qTerm  idx="0"  idxOne="0"  idxTwo="3"  coef="1.9748"/><qTerm  idx="0"  idxOne="0"  idxTwo="10"  coef="-1.4745"/><qTerm  idx="0"  idxOne="0"  idxTwo="17"  coef="-.3101"/><qTerm  idx="0"  idxOne="1"  idxTwo="2"  coef="1.2766"/><qTerm  idx="0"  idxOne="1"  idxTwo="7"  coef=".4156"/><qTerm  idx="0"  idxOne="1"  idxTwo="16"  coef="-1.1527"/><qTerm  idx="0"  idxOne="1"  idxTwo="17"  coef="1.2368"/><qTerm  idx="0"  idxOne="1"  idxTwo="18"  coef=".6736"/><qTerm  idx="0"  idxOne="2"  idxTwo="2"  coef="-.8784"/><qTerm  idx="0"  idxOne="2"  idxTwo="4"  coef=".1713"/><qTerm  idx="0"  idxOne="2"  idxTwo="6"  coef="1.8087"/><qTerm  idx="0"  idxOne="2"  idxTwo="11"  coef="1.7741"/><qTerm  idx="0"  idxOne="2"  idxTwo="18"  coef="1.2437"/><qTerm  idx="0"  idxOne="3"  idxTwo="3"  coef="-3.88e-2"/><qTerm  idx="0"  idxOne="3"  idxTwo="7"  coef="-1.012"/><qTerm  idx="0"  idxOne="3"  idxTwo="8"  coef="1.6854"/><qTerm  idx="0"  idxOne="3"  idxTwo="10"  coef=".1793"/><qTerm  idx="0"  idxOne="3"  idxTwo="15"  coef="1.4495"/><qTerm  idx="0"  idxOne="3"  idxTwo="16"  coef="-1.8511"/><qTerm  idx="0"  idxOne="4"  idxTwo="4"  coef="-1.0373"/><qTerm  idx="0"  idxOne="4"  idxTwo="5"  coef=".5019"/><qTerm  idx="0"  idxOne="4"  idxTwo="11"  coef="-.153"/><qTerm  idx="0"  idxOne="4"  idxTwo="15"  coef="-1.5055"/><qTerm  idx="0"  idxOne="4"  idxTwo="18"  coef="-1.0119"/><qTerm  idx="0"  idxOne="5"  idxTwo="8"  coef=".2975"/><qTerm  idx="0"  idxOne="5"  idxTwo="9"  coef="-1.2585"/><qTerm  idx="0"  idxOne="5"  idxTwo="11"  coef="8.56e-2"/><qTerm  idx="0"  idxOne="5"  idxTwo="12"  coef=".582"/><qTerm  idx="0"  idxOne="5"  idxTwo="13"  coef="-.4968"/><qTerm  idx="0"  idxOne="6"  idxTwo="12"  coef="-1.4208"/><qTerm  idx="0"  idxOne="6"  idxTwo="14"  coef="-.791"/><qTerm  idx="0"  idxOne="6"  idxTwo="16"  coef="1.7333"/><qTerm  idx="0"  idxOne="6"  idxTwo="18"  coef="6.62e-2"/><qTerm  idx="0"  idxOne="7"  idxTwo="9"  coef="-.9189"/><qTerm  idx="0"  idxOne="7"  idxTwo="16"  coef="-1.9981"/><qTerm  idx="0"  idxOne="7"  idxTwo="18"  coef="1.8385"/><qTerm  idx="0"  idxOne="8"  idxTwo="12"  coef=".4566"/><qTerm  idx="0"  idxOne="8"  idxTwo="15"  coef="1.4818"/><qTerm  idx="0"  idxOne="9"  idxTwo="14"  coef="1.5925"/><qTerm  idx="0"  idxOne="9"  idxTwo="15"  coef=".9263"/><qTerm  idx="0"  idxOne="9"  idxTwo="18"  coef="1.4187"/><qTerm  idx="0"  idxOne="10"  idxTwo="10"  coef="1.3929"/><qTerm  idx="0"  idxOne="10"  idxTwo="11"  coef="-1.8126"/><qTerm  idx="0"  idxOne="10"  idxTwo="19"  coef="-.8495"/><qTerm  idx="0"  idxOne="11"  idxTwo="16"  coef=".5423"/><qTerm  idx="0"  idxOne="11"  idxTwo="19"  coef="-.9488"/><qTerm  idx="0"  idxOne="12"  idxTwo="14"  coef=".9227"/><qTerm  idx="0"  idxOne="13"  idxTwo="19"  coef="-.5738"/><qTerm  idx="0"  idxOne="14"  idxTwo="16"  coef=".2399"/><qTerm  idx="0"  idxOne="14"  idxTwo="18"  coef=".8851"/><qTerm  idx="0"  idxOne="17"  idxTwo="19"  coef="1.2547"/><qTerm  idx="1"  idxOne="0"  idxTwo="19"  coef="-1.8026"/><qTerm  idx="1"  idxOne="1"  idxTwo="4"  coef="1.6097"/><qTerm  idx="1"  idxOne="1"  idxTwo="6"  coef="1.8685"/><qTerm  idx="1"  idxOne="1"  idxTwo="9"  coef="1.7153"/><qTerm  idx="1"  idxOne="2"  idxTwo="3"  coef=".8085"/><qTerm  idx="1"  idxOne="2"  idxTwo="4"  coef="1.1163"/><qTerm  idx="1"  idxOne="2"  idxTwo="7"  coef="-.7608"/><qTerm  idx="1"  idxOne="2"  idxTwo="10"  coef="-1.1958"/><qTerm  idx="1"  idxOne="2"  idxTwo="13"  coef=".29"/><qTerm  idx="1"  idxOne="2"  idxTwo="16"  coef="-.8838"/><qTerm  idx="1"  idxOne="2"  idxTwo="17"  coef="1.1649"/><qTerm  idx="1"  idxOne="2"  idxTwo="18"  coef=".3847"/><qTerm  idx="1"  idxOne="2"  idxTwo="19"  coef="1.3649"/><qTerm  idx="1"  idxOne="3"  idxTwo="10"  coef="-1.0384"/><qTerm  idx="1"  idxOne="3"  idxTwo="13"  coef="1.3901"/><qTerm  idx="1"  idxOne="3"  idxTwo="16"  coef=".5335"/><qTerm  idx="1"  idxOne="4"  idxTwo="4"  coef="-1.9917"/><qTerm  idx="1"  idxOne="4"  idxTwo="5"  coef="-1.7134"/><qTerm  idx="1"  idxOne="4"  idxTwo="6"  coef=".8271"/><qTerm  idx="1"  idxOne="4"  idxTwo="12"  coef="-1.4952"/><qTerm  idx="1"  idxOne="4"  idxTwo="13"  coef="-1.9491"/><qTerm  idx="1"  idxOne="4"  idxTwo="14"  coef="-.9972"/><qTerm  idx="1"  idxOne="4"  idxTwo="18"  coef="1.1811"/><qTerm  idx="1"  idxOne="5"  idxTwo="5"  coef="-2.52e-2"/><qTerm  idx="1"  idxOne="5"  idxTwo="8"  coef="1.375"/><qTerm  idx="1"  idxOne="5"  idxTwo="9"  coef="-7.63e-2"/><qTerm  idx="1"  idxOne="5"  idxTwo="10"  coef="1.9252"/><qTerm  idx="1"  idxOne="5"  idxTwo="18"  coef="1.2802"/><qTerm  idx="1"  idxOne="6"  idxTwo="9"  coef="1.0614"/><qTerm  idx="1"  idxOne="6"  idxTwo="12"  coef="-.8865"/><qTerm  idx="1"  idxOne="6"  idxTwo="13"  coef="1.7118"/><qTerm  idx="1"  idxOne="6"  idxTwo="18"  coef="-.6414"/><qTerm  idx="1"  idxOne="7"  idxTwo="12"  coef="-9.46e-2"/><qTerm  idx="1"  idxOne="7"  idxTwo="16"  coef="-1.8097"/><qTerm  idx="1"  idxOne="7"  idxTwo="18"  coef="1.8506"/><qTerm  idx="1"  idxOne="7"  idxTwo="19"  coef="-1.2007"/><qTerm  idx="1"  idxOne="8"  idxTwo="10"  coef="1.6349"/><qTerm  idx="1"  idxOne="8"  idxTwo="14"  coef=".7292"/><qTerm  idx="1"  idxOne="8"  idxTwo="16"  coef="1.3891"/><qTerm  idx="1"  idxOne="8"  idxTwo="18"  coef="-1.5418"/><qTerm  idx="1"  idxOne="8"  idxTwo="19"  coef="-8.06e-2"/><qTerm  idx="1"  idxOne="9"  idxTwo="11"  coef=".7432"/><qTerm  idx="1"  idxOne="10"  idxTwo="16"  coef=".4395"/><qTerm  idx="1"  idxOne="10"  idxTwo="18"  coef="-1.337"/><qTerm  idx="1"  idxOne="11"  idxTwo="17"  coef=".5918"/><qTerm  idx="1"  idxOne="12"  idxTwo="16"  coef="-1.7371"/><qTerm  idx="1"  idxOne="13"  idxTwo="13"  coef=".5831"/><qTerm  idx="1"  idxOne="13"  idxTwo="17"  coef=".9149"/><qTerm  idx="1"  idxOne="14"  idxTwo="16"  coef="-.6105"/><qTerm  idx="1"  idxOne="14"  idxTwo="19"  coef="1.5584"/><qTerm  idx="1"  idxOne="17"  idxTwo="18"  coef="-1.1529"/><qTerm  idx="1"  idxOne="18"  idxTwo="18"  coef="1.1688"/><qTerm  idx="2"  idxOne="0"  idxTwo="3"  coef="-.8766"/><qTerm  idx="2"  idxOne="0"  idxTwo="15"  coef="1.8689"/><qTerm  idx="2"  idxOne="1"  idxTwo="1"  coef="-1.6904"/><qTerm  idx="2"  idxOne="1"  idxTwo="2"  coef="5.07e-2"/><qTerm  idx="2"  idxOne="1"  idxTwo="4"  coef=".7263"/><qTerm  idx="2"  idxOne="1"  idxTwo="5"  coef="-.7301"/><qTerm  idx="2"  idxOne="1"  idxTwo="16"  coef="1.4915"/><qTerm  idx="2"  idxOne="1"  idxTwo="17"  coef="-1.5604"/><qTerm  idx="2"  idxOne="2"  idxTwo="3"  coef="1.158"/><qTerm  idx="2"  idxOne="2"  idxTwo="9"  coef=".9162"/><qTerm  idx="2"  idxOne="2"  idxTwo="10"  coef="1.0735"/><qTerm  idx="2"  idxOne="2"  idxTwo="13"  coef=".6107"/><qTerm  idx="2"  idxOne="2"  idxTwo="15"  coef=".7123"/><qTerm  idx="2"  idxOne="2"  idxTwo="18"  coef=".7896"/><qTerm  idx="2"  idxOne="3"  idxTwo="6"  coef="1.5806"/><qTerm  idx="2"  idxOne="3"  idxTwo="10"  coef=".5781"/><qTerm  idx="2"  idxOne="3"  idxTwo="11"  coef="-1.9446"/><qTerm  idx="2"  idxOne="3"  idxTwo="12"  coef=".4953"/><qTerm  idx="2"  idxOne="3"  idxTwo="18"  coef="1.873"/><qTerm  idx="2"  idxOne="4"  idxTwo="7"  coef="-1.4665"/><qTerm  idx="2"  idxOne="4"  idxTwo="10"  coef="1.8262"/><qTerm  idx="2"  idxOne="4"  idxTwo="13"  coef="-1.0213"/><qTerm  idx="2"  idxOne="5"  idxTwo="5"  coef="-1.2172"/><qTerm  idx="2"  idxOne="5"  idxTwo="7"  coef="1.8219"/><qTerm  idx="2"  idxOne="5"  idxTwo="10"  coef=".8222"/><qTerm  idx="2"  idxOne="5"  idxTwo="14"  coef="-.6278"/><qTerm  idx="2"  idxOne="5"  idxTwo="17"  coef="1.1909"/><qTerm  idx="2"  idxOne="6"  idxTwo="10"  coef="1.6875"/><qTerm  idx="2"  idxOne="6"  idxTwo="11"  coef=".8925"/><qTerm  idx="2"  idxOne="6"  idxTwo="18"  coef="-.5569"/><qTerm  idx="2"  idxOne="7"  idxTwo="8"  coef="1.7399"/><qTerm  idx="2"  idxOne="7"  idxTwo="17"  coef="-.6105"/><qTerm  idx="2"  idxOne="7"  idxTwo="18"  coef=".1286"/><qTerm  idx="2"  idxOne="8"  idxTwo="10"  coef="-1.6868"/><qTerm  idx="2"  idxOne="8"  idxTwo="18"  coef="-1.6362"/><qTerm  idx="2"  idxOne="9"  idxTwo="9"  coef="8.03e-2"/><qTerm  idx="2"  idxOne="9"  idxTwo="11"  coef=".1131"/><qTerm  idx="2"  idxOne="10"  idxTwo="11"  coef="1.1394"/><qTerm  idx="2"  idxOne="10"  idxTwo="13"  coef="9.42e-2"/><qTerm  idx="2"  idxOne="10"  idxTwo="15"  coef=".8311"/><qTerm  idx="2"  idxOne="11"  idxTwo="12"  coef=".5694"/><qTerm  idx="2"  idxOne="11"  idxTwo="16"  coef="-.5811"/><qTerm  idx="2"  idxOne="12"  idxTwo="13"  coef="1.2981"/><qTerm  idx="2"  idxOne="12"  idxTwo="15"  coef="-.6819"/><qTerm  idx="2"  idxOne="12"  idxTwo="18"  coef=".9823"/><qTerm  idx="2"  idxOne="14"  idxTwo="15"  coef="1.976"/><qTerm  idx="2"  idxOne="14"  idxTwo="16"  coef="1.4939"/><qTerm  idx="2"  idxOne="14"  idxTwo="17"  coef="1.2289"/><qTerm  idx="2"  idxOne="14"  idxTwo="18"  coef="1.8054"/><qTerm  idx="2"  idxOne="15"  idxTwo="16"  coef="-.1366"/><qTerm  idx="2"  idxOne="16"  idxTwo="16"  coef=".4808"/><qTerm  idx="2"  idxOne="17"  idxTwo="18"  coef="-.9832"/><qTerm  idx="3"  idxOne="0"  idxTwo="1"  coef="-.4652"/><qTerm  idx="3"  idxOne="0"  idxTwo="9"  coef="-1.0121"/><qTerm  idx="3"  idxOne="0"  idxTwo="10"  coef="-1.9772"/><qTerm  idx="3"  idxOne="0"  idxTwo="14"  coef="1.7187"/><qTerm  idx="3"  idxOne="1"  idxTwo="3"  coef=".5958"/><qTerm  idx="3"  idxOne="1"  idxTwo="8"  coef="1.2279"/><qTerm  idx="3"  idxOne="1"  idxTwo="19"  coef="1.4776"/><qTerm  idx="3"  idxOne="2"  idxTwo="3"  coef="1.1874"/><qTerm  idx="3"  idxOne="2"  idxTwo="5"  coef="-.3089"/><qTerm  idx="3"  idxOne="2"  idxTwo="6"  coef=".6349"/><qTerm  idx="3"  idxOne="2"  idxTwo="9"  coef=".1671"/><qTerm  idx="3"  idxOne="2"  idxTwo="13"  coef="1.6667"/><qTerm  idx="3"  idxOne="3"  idxTwo="3"  coef="-1.8844"/><qTerm  idx="3"  idxOne="3"  idxTwo="10"  coef="-1.2727"/><qTerm  idx="3"  idxOne="4"  idxTwo="4"  coef="-.663"/><qTerm  idx="3"  idxOne="4"  idxTwo="7"  coef=".8067"/><qTerm  idx="3"  idxOne="4"  idxTwo="12"  coef=".2556"/><qTerm  idx="3"  idxOne="4"  idxTwo="19"  coef="1.0329"/><qTerm  idx="3"  idxOne="5"  idxTwo="6"  coef="1.9473"/><qTerm  idx="3"  idxOne="5"  idxTwo="11"  coef="-.2663"/><qTerm  idx="3"  idxOne="5"  idxTwo="13"  coef="-1.6727"/><qTerm  idx="3"  idxOne="6"  idxTwo="9"  coef="1.2557"/><qTerm  idx="3"  idxOne="6"  idxTwo="11"  coef="1.3629"/><qTerm  idx="3"  idxOne="6"  idxTwo="17"  coef="-.3557"/><qTerm  idx="3"  idxOne="6"  idxTwo="18"  coef="-.5918"/><qTerm  idx="3"  idxOne="7"  idxTwo="7"  coef="1.5613"/><qTerm  idx="3"  idxOne="7"  idxTwo="9"  coef=".8232"/><qTerm  idx="3"  idxOne="7"  idxTwo="10"  coef="1.2424"/><qTerm  idx="3"  idxOne="7"  idxTwo="15"  coef="1.5332"/><qTerm  idx="3"  idxOne="7"  idxTwo="16"  coef="1.0074"/><qTerm  idx="3"  idxOne="7"  idxTwo="18"  coef="1.6723"/><qTerm  idx="3"  idxOne="8"  idxTwo="9"  coef="-.6053"/><qTerm  idx="3"  idxOne="8"  idxTwo="11"  coef="1.3256"/><qTerm  idx="3"  idxOne="8"  idxTwo="12"  coef="1.1511"/><qTerm  idx="3"  idxOne="8"  idxTwo="16"  coef=".8851"/><qTerm  idx="3"  idxOne="8"  idxTwo="18"  coef="-1.1411"/><qTerm  idx="3"  idxOne="9"  idxTwo="15"  coef="1.7036"/><qTerm  idx="3"  idxOne="9"  idxTwo="17"  coef=".9354"/><qTerm  idx="3"  idxOne="10"  idxTwo="13"  coef="5.23e-2"/><qTerm  idx="3"  idxOne="10"  idxTwo="14"  coef="-.4672"/><qTerm  idx="3"  idxOne="10"  idxTwo="15"  coef="-1.6733"/><qTerm  idx="3"  idxOne="10"  idxTwo="16"  coef="1.9722"/><qTerm  idx="3"  idxOne="10"  idxTwo="17"  coef=".7544"/><qTerm  idx="3"  idxOne="10"  idxTwo="18"  coef="-1.3676"/><qTerm  idx="3"  idxOne="10"  idxTwo="19"  coef="-1.7737"/><qTerm  idx="3"  idxOne="11"  idxTwo="15"  coef="-1.4413"/><qTerm  idx="3"  idxOne="11"  idxTwo="18"  coef="1.6542"/><qTerm  idx="3"  idxOne="12"  idxTwo="13"  coef=".2455"/><qTerm  idx="3"  idxOne="13"  idxTwo="17"  coef="1.298"/><qTerm  idx="3"  idxOne="14"  idxTwo="16"  coef="1.9893"/><qTerm  idx="3"  idxOne="16"  idxTwo="18"  coef="1.8451"/><qTerm  idx="3"  idxOne="17"  idxTwo="18"  coef="-.438"/></quadraticCoefficients></instanceData></osil>
